n = 26;
lu = [|-261, 674
      |-256, 209
      |438, 554
      |-560, -415
      |-591, 301
      |353, 600
      |-325, 625
      |-180, 203
      |-263, 161
      |-618, -221
      |-411, -381
      |-233, 547
      |120, 313
      |-178, 70
      |-613, 520
      |-614, -75
      |423, 437
      |-422, 367
      |-587, 643
      |-661, 274
      |553, 670
      |-34, 473
      |-23, 191
      |-265, 208
      |-561, -163
      |-272, 602|];
